\ Model Modelo TS-Loss
\ LP format - for model browsing. Use MPS format to capture full model detail.
Minimize
  6500 Pg[0] + 4000 Pg[1] + 19000 Pg[2] + 10000 Pg[3] + 0 n_a[0,1]
   + 0 n_a[1,1] + 0 n_a[2,1]
Subject To
 Balance: Pg[0] + Pg[1] + Pg[2] + Pg[3] - ploss[0] - ploss[1] - ploss[2]
   = 2.1
 PMax[0]: - Pg[0] >= -1
 PMax[1]: - Pg[1] >= -0.8
 PMax[2]: - Pg[2] >= -0.7
 PMax[3]: - Pg[3] >= -1.4
 PMin[0]: Pg[0] >= 0.1
 PMin[1]: Pg[1] >= 0.2
 PMin[2]: Pg[2] >= 0.4
 PMin[3]: Pg[3] >= 0.5
 Ploss[0]: ploss[0] - 0.00981000281354649 dpk[0,0]
   - 0.0294300084406395 dpk[0,1] = 0
 Ploss[1]: ploss[1] - 0.0208000060803015 dpk[1,0]
   - 0.0624000182409044 dpk[1,1] = 0
 Ploss[2]: ploss[2] - 0.0116000033909374 dpk[2,0]
   - 0.0348000101728121 dpk[2,1] = 0
 fs1_p[0]: 0.0978077595328931 Pg[0] + 0.4485666213060268 Pg[1]
   - 0.2242833106530134 ploss[0] - 0.2731871904194599 ploss[1]
   - 0.0489038797664465 ploss[2] - 0.2000000493200983 s_ts[0]
   - 0.5514333786939732 f[0] + 0.3507588617731337 f[1]
   + 0.0978077595328931 f[2] <= 0.1075885354861824
 fs1_p[1]: - 0.0978077595328931 Pg[0] + 0.551433378693973 Pg[1]
   - 0.2757166893469865 ploss[0] - 0.22681280958054 ploss[1]
   + 0.0489038797664465 ploss[2] - 1.000000260795754 s_ts[1]
   + 0.551433378693973 f[0] - 0.3507588617731339 f[1]
   - 0.0978077595328931 f[2] <= -0.1075885354861824
 fs1_p[2]: 0.902192240467107 Pg[0] + 0.5514333786939732 Pg[1]
   - 0.2757166893469866 ploss[0] - 0.7268128095805402 ploss[1]
   - 0.4510961202335535 ploss[2] - 1.000000260795754 s_ts[2]
   + 0.5514333786939732 f[0] - 0.3507588617731338 f[1]
   - 0.097807759532893 f[2] <= 0.9924114645138178
 fs1_n[0]: 0.0978077595328931 Pg[0] + 0.4485666213060268 Pg[1]
   - 0.2242833106530134 ploss[0] - 0.2731871904194599 ploss[1]
   - 0.0489038797664465 ploss[2] + 0.2000000493200983 s_ts[0]
   - 0.5514333786939732 f[0] + 0.3507588617731337 f[1]
   + 0.0978077595328931 f[2] >= 0.1075885354861824
 fs1_n[1]: - 0.0978077595328931 Pg[0] + 0.551433378693973 Pg[1]
   - 0.2757166893469865 ploss[0] - 0.22681280958054 ploss[1]
   + 0.0489038797664465 ploss[2] + 1.000000260795754 s_ts[1]
   + 0.551433378693973 f[0] - 0.3507588617731339 f[1]
   - 0.0978077595328931 f[2] >= -0.1075885354861824
 fs1_n[2]: 0.902192240467107 Pg[0] + 0.5514333786939732 Pg[1]
   - 0.2757166893469866 ploss[0] - 0.7268128095805402 ploss[1]
   - 0.4510961202335535 ploss[2] + 1.000000260795754 s_ts[2]
   + 0.5514333786939732 f[0] - 0.3507588617731338 f[1]
   - 0.097807759532893 f[2] >= 0.9924114645138178
 fs2_p[0]: 100000 s_ts[0] + f[0] <= 100000
 fs2_p[1]: 100000 s_ts[1] + f[1] <= 100000
 fs2_p[2]: 100000 s_ts[2] + f[2] <= 100000
 fs2_n[0]: - 100000 s_ts[0] + f[0] >= -100000
 fs2_n[1]: - 100000 s_ts[1] + f[1] >= -100000
 fs2_n[2]: - 100000 s_ts[2] + f[2] >= -100000
 R24: - fp[0] - fn[0] + dpk[0,0] + dpk[0,1] = 0
 R25: - fp[1] - fn[1] + dpk[1,0] + dpk[1,1] = 0
 R26: - fp[2] - fn[2] + dpk[2,0] + dpk[2,1] = 0
 flujo[0]: f[0] - fp[0] + fn[0] = 0
 flujo[1]: f[1] - fp[1] + fn[1] = 0
 flujo[2]: f[2] - fp[2] + fn[2] = 0
 R30: - 0.0978077595328931 Pg[0] - 0.4485666213060268 Pg[1] + f[0]
   + 0.2242833106530134 ploss[0] + 0.2731871904194599 ploss[1]
   + 0.0489038797664465 ploss[2] + 0.5514333786939732 f[0]
   - 0.3507588617731337 f[1] - 0.0978077595328931 f[2]
   = -0.1075885354861824
 R31: 0.0978077595328931 Pg[0] - 0.551433378693973 Pg[1] + f[1]
   + 0.2757166893469865 ploss[0] + 0.22681280958054 ploss[1]
   - 0.0489038797664465 ploss[2] - 0.551433378693973 f[0]
   + 0.3507588617731339 f[1] + 0.0978077595328931 f[2]
   = 0.1075885354861824
 R32: - 0.902192240467107 Pg[0] - 0.5514333786939732 Pg[1] + f[2]
   + 0.2757166893469866 ploss[0] + 0.7268128095805402 ploss[1]
   + 0.4510961202335535 ploss[2] - 0.5514333786939732 f[0]
   + 0.3507588617731338 f[1] + 0.097807759532893 f[2]
   = -0.9924114645138178
 suma_f[0]: - fp[0] - fn[0] - 0.5 ploss[0] >= -0.2000000493200983
 suma_f[1]: - fp[1] - fn[1] - 0.5 ploss[1] >= -1.000000260795754
 suma_f[2]: - fp[2] - fn[2] - 0.5 ploss[2] >= -1.000000260795754
 fp_n[0]: - fp[0] + 0.2000000493200983 n_l[0] >= 0
 fp_n[1]: - fp[1] + 1.000000260795754 n_l[1] >= 0
 fp_n[2]: - fp[2] + 1.000000260795754 n_l[2] >= 0
 fn_n[0]: - fn[0] - 0.2000000493200983 n_l[0] >= -0.2000000493200983
 fn_n[1]: - fn[1] - 1.000000260795754 n_l[1] >= -1.000000260795754
 fn_n[2]: - fn[2] - 1.000000260795754 n_l[2] >= -1.000000260795754
 d_f_Res_max_A_l[0]: - dpk[0,0] >= -0.1000000246600492
 d_f_Res_max_A_l[1]: - dpk[1,0] >= -0.5000001303978771
 d_f_Res_max_A_l[2]: - dpk[2,0] >= -0.5000001303978771
 d_f_Res_min_A_l[0]: dpk[0,0] - 0.1000000246600492 n_a[0,0] >= 0
 d_f_Res_min_A_l[1]: dpk[1,0] - 0.5000001303978771 n_a[1,0] >= 0
 d_f_Res_min_A_l[2]: dpk[2,0] - 0.5000001303978771 n_a[2,0] >= 0
 d_f_Res_max_A_L[0]: - dpk[0,1] + 0.1000000246600492 n_a[0,0] >= 0
 d_f_Res_max_A_L[1]: - dpk[1,1] + 0.5000001303978771 n_a[1,0] >= 0
 d_f_Res_max_A_L[2]: - dpk[2,1] + 0.5000001303978771 n_a[2,0] >= 0
 d_f_Res_min_A_L[0]: dpk[0,1] >= 0
 d_f_Res_min_A_L[1]: dpk[1,1] >= 0
 d_f_Res_min_A_L[2]: dpk[2,1] >= 0
Bounds
 f[0] free
 f[1] free
 f[2] free
 f[0] free
 f[1] free
 f[2] free
Binaries
 n_l[0] n_l[1] n_l[2] n_a[0,0] n_a[0,1] n_a[1,0] n_a[1,1] n_a[2,0] n_a[2,1]
 s_ts[0] s_ts[1] s_ts[2]
End
